117 40 39 170 53 149 70 198 67 197 5 132 194 62 26 100 56 101 150 69 75 30 181 134 49 86 138 166 108 152 38 20 80 127 124 65 188 79 113 81 179 47 141 184 37 72 169 7 84 58 52 116 163 54 115 173 139 191 154 177 143 171 88 23 22 193 104 55 144 160 153 24 18 45 36 119 96 137 162 135 19 151 92 200 130 44 102 148 41 192 17 78 155 13 187 126 63 31 48 195 156 51 128 112 15 6 4 83 182 33 147 121 82 64 14 125 120 42 110 109 2 16 105 77 103 183 140 106 118 185 159 50 164 43 89 196 186 60 74 165 87 114 168 133 66 145 199 178 131 157 172 35 61 27 176 180 94 57 34 9 25 46 146 21 90 1 95 98 174 12 161 71 107 32 167 175 59 136 29 8 99 76 97 91 129 28 158 3 11 93 122 85 73 142 123 10 68 111 189 190

Best FO
29440.97

Best RPD
0.01

Time to best FO
15.78

Total Time
40.48